* ENCODING=ISO-8859-1
NAME          CPLEX
ROWS
 N  obj1    
 G  c1      
 G  c2      
 G  c3      
 G  c4      
 G  c5      
 G  c6      
 G  c7      
 G  c8      
 G  c9      
 G  c10     
 G  c11     
 G  c12     
 G  c13     
 G  c14     
 G  c15     
 G  c16     
 G  c17     
 G  c18     
 G  c19     
 G  c20     
 G  c21     
 G  c22     
 G  c23     
 G  c24     
 G  c25     
 G  c26     
 G  c27     
 G  c28     
 G  c29     
 G  c30     
 G  c31     
 G  c32     
 G  c33     
 G  c34     
 G  c35     
 G  c36     
 G  c37     
 G  c38     
 G  c39     
 G  c40     
 G  c41     
 G  c42     
 G  c43     
 G  c44     
 G  c45     
 G  c46     
 G  c47     
 G  c48     
 G  c49     
 G  c50     
COLUMNS
    MARK0000  'MARKER'                 'INTORG'
    x1        obj1                            1
    x1        c30                           136
    x1        c36                           511
    x1        c37                           459
    x1        c44                           928
    x2        obj1                            1
    x2        c22                           397
    x2        c34                           950
    x2        c40                           538
    x2        c44                           895
    x3        obj1                            1
    x3        c4                            397
    x3        c7                            731
    x3        c16                           157
    x3        c29                           878
    x3        c35                           876
    x3        c37                           313
    x4        obj1                            1
    x4        c1                            215
    x4        c20                           664
    x4        c31                           562
    x4        c40                           217
    x5        obj1                            1
    x5        c2                            534
    x5        c5                            873
    x6        obj1                            1
    x6        c11                           652
    x6        c18                           638
    x6        c22                           463
    x6        c27                           120
    x6        c32                           384
    x6        c33                           142
    x6        c34                           462
    x7        obj1                            1
    x7        c9                            610
    x7        c29                           731
    x7        c46                           476
    x8        obj1                            1
    x8        c16                           465
    x8        c18                           654
    x8        c45                           109
    x8        c48                           262
    x9        obj1                            1
    x9        c9                            278
    x9        c38                           372
    x9        c39                           875
    x10       obj1                            1
    x10       c3                            212
    x10       c11                           644
    x10       c18                           165
    x10       c24                           433
    x10       c31                           439
    x10       c37                           959
    x11       obj1                            1
    x11       c1                            737
    x12       obj1                            1
    x12       c4                            421
    x12       c10                           649
    x12       c13                           805
    x12       c18                           313
    x12       c29                           462
    x12       c35                           339
    x12       c42                           697
    x13       obj1                            1
    x13       c8                            700
    x13       c30                           351
    x13       c36                           879
    x13       c49                           585
    x14       obj1                            1
    x14       c4                            967
    x14       c5                            656
    x14       c6                            109
    x14       c12                           560
    x14       c15                           996
    x14       c20                           794
    x14       c25                           174
    x14       c31                           689
    x14       c38                           565
    x14       c44                           197
    x14       c48                           990
    x15       obj1                            1
    x15       c8                            509
    x15       c14                           216
    x15       c38                           477
    x15       c41                           758
    x15       c47                           324
    x16       obj1                            1
    x16       c7                            291
    x16       c24                           510
    x16       c29                           544
    x16       c45                           282
    x17       obj1                            1
    x17       c8                            825
    x17       c21                           116
    x17       c27                           880
    x17       c29                           471
    x17       c49                           723
    x18       obj1                            1
    x18       c14                           462
    x18       c28                           256
    x18       c37                           550
    x18       c46                           473
    x18       c48                           568
    x19       obj1                            1
    x19       c9                            114
    x19       c17                           859
    x19       c35                           358
    x20       obj1                            1
    x20       c24                           759
    x20       c32                           343
    x21       obj1                            1
    x21       c10                           523
    x21       c18                           354
    x22       obj1                            1
    x22       c10                           769
    x22       c17                           520
    x22       c21                           176
    x22       c26                           309
    x22       c37                           925
    x22       c39                           274
    x23       obj1                            1
    x23       c6                            651
    x23       c22                           977
    x23       c25                           997
    x23       c36                           857
    x23       c40                           469
    x24       obj1                            1
    x24       c9                            768
    x24       c24                           606
    x24       c45                           172
    x25       obj1                            1
    x25       c5                            112
    x25       c12                           638
    x25       c14                           930
    x25       c15                           771
    x25       c32                           307
    x25       c38                           684
    x25       c46                           148
    x25       c47                           623
    x26       obj1                            1
    x26       c18                           458
    x26       c19                           353
    x26       c20                           737
    x26       c27                           353
    x26       c29                           453
    x26       c41                           354
    x26       c44                           927
    x27       obj1                            1
    x27       c12                           955
    x27       c20                           271
    x27       c23                           503
    x27       c24                           991
    x27       c29                           717
    x27       c38                           687
    x27       c45                           385
    x27       c50                           951
    x28       obj1                            1
    x28       c2                            155
    x28       c20                           914
    x28       c21                           411
    x28       c33                           587
    x29       obj1                            1
    x29       c7                            996
    x29       c13                           699
    x29       c27                           825
    x29       c47                           978
    x30       obj1                            1
    x30       c2                            838
    x30       c14                           565
    x30       c22                           699
    x30       c27                           953
    x30       c28                           821
    x30       c42                           432
    x30       c43                           905
    x30       c50                           686
    x31       obj1                            1
    x31       c2                            441
    x31       c8                            639
    x31       c19                           438
    x31       c33                           932
    x31       c36                           891
    x31       c38                           973
    x32       obj1                            1
    x32       c8                            530
    x32       c15                           361
    x32       c19                           365
    x32       c43                           282
    x32       c46                           882
    x33       obj1                            1
    x33       c2                            271
    x33       c7                            281
    x33       c10                           679
    x33       c14                           368
    x33       c46                           323
    x33       c47                           335
    x34       obj1                            1
    x34       c6                            265
    x34       c11                           356
    x34       c21                           162
    x34       c28                           206
    x35       obj1                            1
    x35       c14                           292
    x35       c16                           725
    x35       c17                           792
    x35       c22                           715
    x35       c25                           486
    x35       c34                           909
    x35       c38                           636
    x35       c46                           226
    x36       obj1                            1
    x36       c18                           236
    x36       c28                           143
    x36       c32                           766
    x36       c34                           873
    x36       c43                           263
    x37       obj1                            1
    x37       c14                           712
    x37       c16                           773
    x37       c24                           631
    x37       c43                           352
    x37       c50                           341
    x38       obj1                            1
    x38       c3                            480
    x38       c13                           400
    x38       c27                           723
    x38       c28                           724
    x38       c44                           112
    x38       c48                           129
    x38       c49                           781
    x39       obj1                            1
    x39       c30                           606
    x39       c36                           432
    x40       obj1                            1
    x41       obj1                            1
    x41       c2                            856
    x41       c3                            761
    x41       c10                           621
    x41       c15                           345
    x41       c23                           923
    x41       c32                           483
    x41       c41                           684
    x42       obj1                            1
    x42       c1                            911
    x42       c3                            679
    x42       c22                           189
    x42       c26                           690
    x42       c30                           338
    x42       c39                           505
    x42       c44                           537
    x43       obj1                            1
    x43       c3                            474
    x43       c10                           793
    x43       c32                           243
    x43       c42                           871
    x44       obj1                            1
    x44       c7                            439
    x44       c26                           784
    x45       obj1                            1
    x45       c8                            748
    x45       c43                           779
    x46       obj1                            1
    x46       c3                            925
    x46       c13                           881
    x46       c33                           991
    x46       c46                           867
    x47       obj1                            1
    x47       c24                           330
    x47       c26                           545
    x47       c35                           178
    x47       c40                           149
    x48       obj1                            1
    x48       c22                           222
    x48       c23                           423
    x48       c28                           560
    x48       c30                           732
    x49       obj1                            1
    x49       c1                            102
    x49       c41                           569
    x50       obj1                            1
    x50       c3                            167
    x50       c20                           754
    MARK0001  'MARKER'                 'INTEND'
RHS
    rhs       c1                            983
    rhs       c2                           1548
    rhs       c3                           1849
    rhs       c4                            893
    rhs       c5                            821
    rhs       c6                            513
    rhs       c7                           1369
    rhs       c8                           1976
    rhs       c9                            885
    rhs       c10                          2017
    rhs       c11                           826
    rhs       c12                          1077
    rhs       c13                          1393
    rhs       c14                          1773
    rhs       c15                          1237
    rhs       c16                          1060
    rhs       c17                          1086
    rhs       c18                          1409
    rhs       c19                           578
    rhs       c20                          2067
    rhs       c21                           433
    rhs       c22                          1831
    rhs       c23                           925
    rhs       c24                          2130
    rhs       c25                           829
    rhs       c26                          1164
    rhs       c27                          1927
    rhs       c28                          1355
    rhs       c29                          2128
    rhs       c30                          1082
    rhs       c31                           845
    rhs       c32                          1263
    rhs       c33                          1326
    rhs       c34                          1597
    rhs       c35                           876
    rhs       c36                          1785
    rhs       c37                          1603
    rhs       c38                          2197
    rhs       c39                           827
    rhs       c40                           687
    rhs       c41                          1183
    rhs       c42                          1000
    rhs       c43                          1291
    rhs       c44                          1798
    rhs       c45                           474
    rhs       c46                          1698
    rhs       c47                          1130
    rhs       c48                           975
    rhs       c49                          1045
    rhs       c50                           989
BOUNDS
 LI bnd       x1        0
 LI bnd       x2        0
 LI bnd       x3        0
 LI bnd       x4        0
 LI bnd       x5        0
 LI bnd       x6        0
 LI bnd       x7        0
 LI bnd       x8        0
 LI bnd       x9        0
 LI bnd       x10       0
 LI bnd       x11       0
 LI bnd       x12       0
 LI bnd       x13       0
 LI bnd       x14       0
 LI bnd       x15       0
 LI bnd       x16       0
 LI bnd       x17       0
 LI bnd       x18       0
 LI bnd       x19       0
 LI bnd       x20       0
 LI bnd       x21       0
 LI bnd       x22       0
 LI bnd       x23       0
 LI bnd       x24       0
 LI bnd       x25       0
 LI bnd       x26       0
 LI bnd       x27       0
 LI bnd       x28       0
 LI bnd       x29       0
 LI bnd       x30       0
 LI bnd       x31       0
 LI bnd       x32       0
 LI bnd       x33       0
 LI bnd       x34       0
 LI bnd       x35       0
 LI bnd       x36       0
 LI bnd       x37       0
 LI bnd       x38       0
 LI bnd       x39       0
 LI bnd       x40       0
 LI bnd       x41       0
 LI bnd       x42       0
 LI bnd       x43       0
 LI bnd       x44       0
 LI bnd       x45       0
 LI bnd       x46       0
 LI bnd       x47       0
 LI bnd       x48       0
 LI bnd       x49       0
 LI bnd       x50       0
ENDATA
